
Gurobi 10.0.1 (mac64[arm]) logging started Mon Sep 18 22:45:10 2023

Set parameter LogFile to value "scenario_capacity/CAP_h/results/CAP_h_-50/mip_log.txt"
Gurobi Optimizer version 10.0.1 build v10.0.1rc0 (mac64[arm])

CPU model: Apple M1
Thread count: 8 physical cores, 8 logical processors, using up to 8 threads

Optimize a model with 1694 rows, 6293 columns and 24772 nonzeros
Model fingerprint: 0x16378b92
Model has 8978 general constraints
Variable types: 1 continuous, 6292 integer (408 binary)
Coefficient statistics:
  Matrix range     [6e-02, 3e+05]
  Objective range  [9e-02, 2e+05]
  Bounds range     [1e+00, 2e+07]
  RHS range        [4e+03, 2e+04]
  GenCon rhs range [1e+00, 1e+00]
  GenCon coe range [1e+00, 1e+00]
Presolve removed 44 rows and 373 columns
Presolve time: 0.07s
Presolved: 1650 rows, 5920 columns, 23713 nonzeros
Presolved model has 4 SOS constraint(s)
Variable types: 0 continuous, 5920 integer (34 binary)

Root relaxation: objective 5.677145e+07, 7620 iterations, 0.08 seconds (0.11 work units)

    Nodes    |    Current Node    |     Objective Bounds      |     Work
 Expl Unexpl |  Obj  Depth IntInf | Incumbent    BestBd   Gap | It/Node Time

     0     0 5.6771e+07    0  491          - 5.6771e+07      -     -    0s
     0     0 5.7913e+07    0  824          - 5.7913e+07      -     -    0s
     0     0 5.7913e+07    0  861          - 5.7913e+07      -     -    0s
     0     0 5.7913e+07    0  881          - 5.7913e+07      -     -    0s
     0     0 5.7913e+07    0  937          - 5.7913e+07      -     -    0s
     0     0 5.7913e+07    0  964          - 5.7913e+07      -     -    0s
     0     0 5.7913e+07    0  991          - 5.7913e+07      -     -    0s
     0     0 5.7913e+07    0 1003          - 5.7913e+07      -     -    0s
     0     0 5.7913e+07    0 1006          - 5.7913e+07      -     -    0s
     0     0 5.7913e+07    0  992          - 5.7913e+07      -     -    0s
     0     0 5.7913e+07    0  978          - 5.7913e+07      -     -    0s
     0     2 5.7913e+07    0  974          - 5.7913e+07      -     -    1s
*  628   529              44    6.181408e+07 5.8260e+07  5.75%  83.2    1s
H  684   437                    6.179043e+07 5.8266e+07  5.70%  78.5    1s
H  701   437                    6.151614e+07 5.8266e+07  5.28%  78.6    1s
H  761   434                    6.084125e+07 5.8266e+07  4.23%  80.1    2s
H  834   436                    6.084123e+07 5.8266e+07  4.23%  87.5    2s
H 1006   431                    6.084123e+07 5.8313e+07  4.16%   109    3s
H 1007   431                    6.070704e+07 5.8313e+07  3.94%   109    3s
H 1008   431                    6.063228e+07 5.8313e+07  3.83%   110    3s
H 1208   432                    6.062281e+07 5.8357e+07  3.74%   135    4s
H 1210   432                    6.061914e+07 5.8357e+07  3.73%   136    4s
H 1212   432                    6.060785e+07 5.8357e+07  3.71%   136    4s
H 1213   432                    6.060081e+07 5.8357e+07  3.70%   136    4s
H 1214   432                    6.059512e+07 5.8357e+07  3.69%   136    4s
  1339   428     cutoff   20      6.0595e+07 5.8402e+07  3.62%   148    5s
H 1999   695                    6.058524e+07 5.8565e+07  3.33%   163    7s
H 2039   692                    6.058472e+07 5.8565e+07  3.33%   168    8s
H 2041   657                    6.058455e+07 5.8565e+07  3.33%   168    8s
H 2074   654                    6.058427e+07 5.8565e+07  3.33%   169    8s
H 2075   624                    6.058396e+07 5.8565e+07  3.33%   169    8s
H 2078   594                    6.058368e+07 5.8565e+07  3.33%   169    8s
H 2080   566                    6.058264e+07 5.8565e+07  3.33%   169    8s
H 2114   566                    6.058229e+07 5.8565e+07  3.33%   169    8s
H 2116   541                    6.058205e+07 5.8565e+07  3.33%   170    8s
H 3033   758                    6.058111e+07 5.8565e+07  3.33%   145    9s
H 3054   729                    6.057986e+07 5.8565e+07  3.33%   144    9s
  3488  1121 6.0273e+07   66   14 6.0580e+07 5.8565e+07  3.33%   131   10s
H 3499  1119                    6.027323e+07 5.8565e+07  2.83%   130   10s
* 5155   761              36    6.022457e+07 5.8565e+07  2.76%   107   11s
* 5264   777              34    6.018464e+07 5.8565e+07  2.69%   108   11s
H 5899   965                    5.992752e+07 5.8565e+07  2.27%   112   12s
H 7317  1370                    5.990772e+07 5.8565e+07  2.24%   118   14s
H 7318  1370                    5.990229e+07 5.8565e+07  2.23%   118   14s
H 7350  1370                    5.990149e+07 5.8565e+07  2.23%   118   14s
H 7371  1370                    5.990016e+07 5.8565e+07  2.23%   118   14s
  7905  1503 infeasible   29      5.9900e+07 5.8565e+07  2.23%   122   15s
H 8132  1499                    5.990015e+07 5.8565e+07  2.23%   123   15s
H 8134  1499                    5.989953e+07 5.8565e+07  2.23%   123   15s
H 8135  1499                    5.989649e+07 5.8565e+07  2.22%   123   15s
H 8146  1499                    5.989564e+07 5.8565e+07  2.22%   124   15s
H 8149  1498                    5.988844e+07 5.8565e+07  2.21%   124   15s
 11265  2008 5.8565e+07   30  336 5.9888e+07 5.8565e+07  2.21%   143   20s
 14731  2368 5.8565e+07   25  446 5.9888e+07 5.8565e+07  2.21%   154   25s
H16116  2459                    5.988840e+07 5.8565e+07  2.21%   158   27s
H16203  2459                    5.988840e+07 5.8565e+07  2.21%   159   27s
H16252  2459                    5.988840e+07 5.8565e+07  2.21%   159   27s
 18178  2558 infeasible   30      5.9888e+07 5.8565e+07  2.21%   164   30s
H18492  2558                    5.988840e+07 5.8565e+07  2.21%   166   30s
 20971  2762 5.8565e+07   30  165 5.9888e+07 5.8565e+07  2.21%   171   35s
H23889  2854                    5.988840e+07 5.8565e+07  2.21%   173   38s
H23949  2854                    5.988839e+07 5.8565e+07  2.21%   173   38s
 25041  2965 infeasible   31      5.9888e+07 5.8565e+07  2.21%   173   40s
 29490  3008 infeasible   31      5.9888e+07 5.8565e+07  2.21%   172   45s
 33664  2913 5.8615e+07   27  280 5.9888e+07 5.8565e+07  2.21%   172   50s
 37920  2706 infeasible   32      5.9888e+07 5.8595e+07  2.16%   172   55s
H37937  2706                    5.988839e+07 5.8596e+07  2.16%   172   55s
 42548  4262 infeasible   29      5.9888e+07 5.8678e+07  2.02%   164   60s
 45651  3614     cutoff   27      5.9888e+07 5.9730e+07  0.26%   167   65s

Explored 50031 nodes (7695778 simplex iterations) in 65.11 seconds (97.23 work units)
Thread count was 8 (of 8 available processors)

Solution count 10: 5.98884e+07 5.98884e+07 5.98884e+07 ... 5.98965e+07

Optimal solution found (tolerance 1.00e-04)
Best objective 5.988839475000e+07, best bound 5.988839456389e+07, gap 0.0000%
